     30      1      6    411     10
     56
      1      3     14     29      0      1      3     28      0     21     11     29      1     14      8     10     13     27      7     27     25     12     14     16     17     13      3     14     16      6      5     18     27     22     17     28     26      9      1     21     26      5     17     22      6     29      3     11      2      6     10     19     26     15     23     19     29      8     12     18     10     24     10     16     11      8     21     13      7      0     20      9      1     17     23     27      1     13      4     10     25      9      2      0     29     27      4     11     20      2     13     15     14      0      9      8     11     16     28     29      5      4     26     16     20     27     25     14      5      8     23     21      0     29     19     12     22     11     25     21
     21     92     47    -23    -25     80    -14    -25    -14     34    -20     45     24     62     87     80     65     42     77     94     49     10     -5     30     46     73     63     15     70    101
      5     15	    401    176      5      5     10      0     77      0     10    237      0      0     68      0    -34      0      0      0      0     95      0      0      0      0      0      0      0      0      0      0      0      0    153      0    -12
      4     14	    127     50      5      6      5     77      0      0      0      0      0      0      0      0      0      0     89      0      0      0      0    -11      0      0      0      0     71      0      0      0      0      0      0      0     22
      2     13	    209     94      6      6      4      0      0      0      0      0      0      0      0      0      0      0      0     69      0     65      0      0      0      0      0      0     85      0      0     80      0      0      0      0      0
      4     13	    388    214      4      5      5     10      0      0      0      0      0      0      0    142     81      0      0    292      0      0      0      0      0      0      0      8      0      0      0      0      0      0      0      0     40
      2     14	    450     71      6      6      3    237      0      0      0      0      4    261      0      0      0      0     84    -54      0     87      0     -2      9      0    301      0      0    104      0      0      0      0      0    116    -67
      2     12	    187    123      6      6      8      0      0      0      0      4      0     -2      0      0      0      0    -16      0     41      0      0      0      0      0      0      0     25      0      0      0    -33      0     11      0      0
      5     13	    442    276      6      6      4      0      0      0      0    261     -2      0      0      0    263      0      0    -57    156      0      0      0      0    -21    216      0      0      0    300      0      0      0      0      0    297
      4     15	    162     59      6      6      5     68      0      0      0      0      0      0      0      0      0      0      0      0      0      0      0      0      0      0      0      0    128     55     18      0      0    -25      0      0      0
      1     14	    245     77      4      5      7      0      0      0    142      0      0      0      0      0      7      0      0      0      0      0      0      0     89      0      0      0      0      0      0      0      0      0      0      0      0
      6     12	    390    143      6      6      2    -34      0      0     81      0      0    263      0      7      0      0      0      0      0      0      0      0      0      0      0      0      4      0      0      0      0      0      0      0    215
      4     14	    401    250      5      5      6      0      0      0      0      0      0      0      0      0      0      0      0      0     46      0    107      0      0      0      0      0      0      0      0     56      0      0      0      0    229
      4     12	    307    156      4      5      7      0     89      0      0     84    -16      0      0      0      0      0      0    137      0    100    225      0      0      0      0      0      0      0    110      0      0      0      0      0      0
      1     10	    468    276      3      6      8      0      0     69    292    -54      0    -57      0      0      0      0    137      0      0     40    158      0      0      0      0      0    311      0      0      0      0     72      0      0      0
      2     15	    324    217      5      6      5      0      0      0      0      0     41    156      0      0      0     46      0      0      0      0      0     74      0    214    -12      0      0     -6      0      0      0      0      0      0      0
      6     13	    344    123      6      6      4     95      0     65      0     87      0      0      0      0      0      0    100     40      0      0     37      0      0      0      0      0    113      0    157      0      0      0      0      0      0
      3     13	    286    153      4      5      5      0      0      0      0      0      0      0      0      0      0    107    225    158      0     37      0      0      0      0      0      0    158     76      0      0      0      0      0      0      0
      1     12	    250    124      6      6      4      0    -11      0      0     -2      0      0      0      0      0      0      0      0     74      0      0      0      0      0    192     -5      0      0      0      0      0      0     81      0      0
      2     14	    130     67      5      6      9      0      0      0      0      9      0      0      0     89      0      0      0      0      0      0      0      0      0      0      0      0      0      0      0      0      0      0     -6      0      0
      4     12	    319    142      4      4      7      0      0      0      0      0      0    -21      0      0      0      0      0      0    214      0      0      0      0      0      0      0      0      0    104     68      0      0      0      0      0
      4     10	    424    124      6      6      9      0      0      0      0    301      0    216      0      0      0      0      0      0    -12      0      0    192      0      0      0      0      0      0      0      0      0      0      0      0      0
      6     10	    109     73      6      6      6      0      0      0      8      0      0      0      0      0      0      0      0      0      0      0      0     -5      0      0      0      0      0      0     82     85     48      0      0      0      0
      2     13	    439    115      5      6      9      0     71     85      0      0     25      0    128      0      4      0      0    311      0    113    158      0      0      0      0      0      0      0      0      0      0      0     85      0      0
      2     12	    133     51      5      5      7      0      0      0      0    104      0      0     55      0      0      0      0      0     -6      0     76      0      0      0      0      0      0      0      0      0      0      0      0      0    -12
      2     12	    403    194      3      4      8      0      0      0      0      0      0    300     18      0      0      0    110      0      0    157      0      0      0    104      0     82      0      0      0      0      0      0      0     96      0
      5     10	    153     54      5      6      5      0      0     80      0      0      0      0      0      0      0     56      0      0      0      0      0      0      0     68      0     85      0      0      0      0      0      0    100      0      0
      3     15	    400    100      6      6      7      0      0      0      0      0    -33      0      0      0      0      0      0      0      0      0      0      0      0      0      0     48      0      0      0      0      0      0      0      0      0
      2     11	    158     89      3      6      3      0      0      0      0      0      0      0    -25      0      0      0      0     72      0      0      0      0      0      0      0      0      0      0      0      0      0      0      0      0      0
      6     13	    197    114      6      6      7    153      0      0      0      0     11      0      0      0      0      0      0      0      0      0      0     81     -6      0      0      0     85      0      0    100      0      0      0     80    147
      4     10	    149     59      6      6      3      0      0      0      0    116      0      0      0      0      0      0      0      0      0      0      0      0      0      0      0      0      0      0     96      0      0      0     80      0      0
      4     13	    454    185      5      5      3    -12     22      0     40    -67      0    297      0      0    215    229      0      0      0      0      0      0      0      0      0      0      0    -12      0      0      0      0    147      0      0